(set-logic QF_S)
(declare-fun var0 () String)
(declare-fun var1 () String)
(declare-fun var2 () String)
(declare-fun var3 () Int)
(declare-fun var4 () Int)
(declare-fun var5 () Int)
(declare-fun var6 () Bool)
(declare-fun var7 () Bool)
(declare-fun var8 () Bool)
(assert (str.suffixof (str.at var1 var3) (str.at var1 var3)))
(assert (<= (str.indexof (str.at var2 var5) (str.substr var1 var3 var4) (str.len var2)) (str.indexof var1 var0 var4)))
(assert (>= (str.indexof (str.substr var0 var5 var3) (str.replace var1 var0 var0) (str.indexof var2 var0 var3)) (str.len var0)))
(assert (str.suffixof (str.at (str.substr var1 var4 var3) (str.indexof var2 var1 var3)) (str.substr (str.at var0 var4) (str.len var2) (str.indexof var2 var2 var5))))
(check-sat)